011100000000000000000000000000
100000000000000000000000100100
100000000000000000000000001001
100000000000000000000000010010
000000011000000100000000000000
000000100001001000000000000000
000001000010000100000000000000
000010000100001000000000000000
000010000000100010000000000000
000000010000010001000000000000
000000100000100001000000000000
000001000000010010000000000000
000000001010000000001000000000
000000000101000000000100000000
000001010000000000000000001000
000010100000000000000000010000
000000001001000000000000000100
000000000110000000000000000100
000000000000000000000101000001
000000000000000000001010000010
000000000000100000010000000001
000000000000010000100000000010
000000000000000000010000101000
000000000000000000100000110000
010000000000000000000011000000
000100000000000100000001000000
001000000000001000000010000000
010000000000000011000000000000
000100000000000000010100000000
001000000000000000101000000000
